
Gurobi 8.1.1 (win64) logging started 11/26/19 17:00:59

Changed value of parameter LogFile to logs/miss/qp/miss-07-15-1.log
   Prev: gurobi.log  Default: 
Changed value of parameter LogToConsole to 0
   Prev: 1  Min: 0  Max: 1  Default: 1
Changed value of parameter TimeLimit to 3600.0
   Prev: 1e+100  Min: 0.0  Max: 1e+100  Default: 1e+100
Optimize a model with 1 rows, 284 columns and 1 nonzeros
Model has 14 quadratic constraints
Variable types: 0 continuous, 284 integer (284 binary)
Coefficient statistics:
  Matrix range     [1e+00, 1e+00]
  QMatrix range    [1e+00, 1e+00]
  Objective range  [1e+00, 1e+00]
  Bounds range     [1e+00, 1e+00]
  RHS range        [1e+00, 1e+00]
  QRHS range       [1e+00, 1e+00]
Found heuristic solution: objective 284.0000000
Presolve removed 1 rows and 1 columns
Presolve time: 0.00s
Presolved: 0 rows, 283 columns, 0 nonzeros
Variable types: 0 continuous, 283 integer (283 binary)

Root relaxation: objective 1.000000e+00, 0 iterations, 0.00 seconds

    Nodes    |    Current Node    |     Objective Bounds      |     Work
 Expl Unexpl |  Obj  Depth IntInf | Incumbent    BestBd   Gap | It/Node Time

     0     0    2.00000    0    2  284.00000    2.00000  99.3%     -    0s
H    0     0                      12.0000000    2.00000  83.3%     -    0s
     0     0    2.00000    0    2   12.00000    2.00000  83.3%     -    0s
H    0     0                      11.0000000    2.00000  81.8%     -    0s
     0     2    2.00000    0    2   11.00000    2.00000  81.8%     -    0s
H   86    35                       9.0000000    2.00000  77.8%   1.5    0s
   374   148    4.00000   34    2    9.00000    2.00000  77.8%   1.6    5s
   578   227    6.00000   55    2    9.00000    2.00000  77.8%   1.7   10s
   707   284    8.00000   65    -    9.00000    2.00000  77.8%   1.6   15s
   835   321    3.00000   47    -    9.00000    2.00000  77.8%   1.7   20s
   947   370    3.00000   55    2    9.00000    2.00000  77.8%   1.7   25s
  1046   414    5.00000   85    -    9.00000    2.00000  77.8%   1.7   30s
  1134   452    6.00000  105    -    9.00000    2.00000  77.8%   1.7   35s
  1195   482    5.00000  121    -    9.00000    2.00000  77.8%   1.7   40s
  1268   507    6.00000  132    -    9.00000    2.00000  77.8%   1.7   45s
  1338   540    6.00000  141    2    9.00000    2.00000  77.8%   1.7   50s
  1411   565    5.00000  159    2    9.00000    2.00000  77.8%   1.7   56s
  1470   593    6.00000  164    -    9.00000    2.00000  77.8%   1.7   60s
  1565   632    8.00000  186    -    9.00000    2.00000  77.8%   1.7   66s
  1649   668    8.00000  199    -    9.00000    2.00000  77.8%   1.7   71s
  1757   713    8.00000  211    -    9.00000    2.00000  77.8%   1.7   76s
H 1761   692                       8.0000000    2.00000  75.0%   1.7   76s
  1784   680     cutoff  215         8.00000    2.00000  75.0%   1.7   81s
  1844   674    2.00000   54    2    8.00000    2.00000  75.0%   1.7   85s
  1983   792    2.00000  135    2    8.00000    2.00000  75.0%   1.6   93s
  2036   784    2.00000  138    2    8.00000    2.00000  75.0%   1.6   97s
  2094   804    2.00000  140    2    8.00000    2.00000  75.0%   1.6  103s
  2146   792    2.00000  141    2    8.00000    2.00000  75.0%   1.6  110s
  2215   789    2.00000  142    2    8.00000    2.00000  75.0%   1.6  118s
  2290   833    2.00000  143    2    8.00000    2.00000  75.0%   1.6  123s
  2320   840    2.00000  144    2    8.00000    2.00000  75.0%   1.6  132s
  2412   853    3.00000  149    -    8.00000    2.00000  75.0%   1.6  139s
  2495   934    4.00000   99    -    8.00000    2.00000  75.0%   1.6  140s
  2496   907    3.00000  172    -    8.00000    2.00000  75.0%   1.6  146s
  2572   940    4.00000  188    -    8.00000    2.00000  75.0%   1.6  152s
  2620   965    4.00000  192    -    8.00000    2.00000  75.0%   1.6  160s
  2754  1067    5.50000  235    3    8.00000    2.00000  75.0%   1.6  169s
  2813  1086    6.00000  244    -    8.00000    2.00000  75.0%   1.6  178s
  2887  1102    2.00000  150    2    8.00000    2.00000  75.0%   1.6  189s
  2985  1143    2.00000  151    2    8.00000    2.00000  75.0%   1.6  200s
  3027  1179    2.00000  152    2    8.00000    2.00000  75.0%   1.6  212s
  3127  1198    3.00000  154    2    8.00000    2.00000  75.0%   1.6  219s
  3166  1210    2.00000  155    2    8.00000    2.00000  75.0%   1.6  233s
  3264  1206    2.00000  157    2    8.00000    2.00000  75.0%   1.6  248s
  3361  1266    2.00000  167    2    8.00000    2.00000  75.0%   1.6  258s
  3421  1307    2.00000  169    2    8.00000    2.00000  75.0%   1.6  272s
  3526  1328    2.00000  170    2    8.00000    2.00000  75.0%   1.6  282s
  3587  1378    2.00000  171    2    8.00000    2.00000  75.0%   1.6  294s
  3683  1387    5.00000  175    -    8.00000    2.00000  75.0%   1.6  305s
  3757  1432    6.00000  199    -    8.00000    2.00000  75.0%   1.6  322s
  3864  1452    6.00000  199    -    8.00000    2.00000  75.0%   1.6  333s
  3914  1491    7.00000  201    2    8.00000    2.00000  75.0%   1.6  350s
  4026  1524    7.00000  205    2    8.00000    2.00000  75.0%   1.6  358s
  4076  1570    7.00000  218    -    8.00000    2.00000  75.0%   1.6  375s
  4179  1553     cutoff  219         8.00000    2.00000  75.0%   1.6  395s
  4281  1601    3.00000  175    2    8.00000    2.00000  75.0%   1.6  406s
  4356  1657    2.00000  176    2    8.00000    2.00000  75.0%   1.6  423s
  4483  1684    3.00000  177    -    8.00000    2.00000  75.0%   1.6  435s
  4525  1719    2.00000  179    2    8.00000    2.00000  75.0%   1.6  451s
  4655  1748    2.00000  180    2    8.00000    2.00000  75.0%   1.6  471s
  4769  1796    2.40000  181    3    8.00000    2.40000  70.0%   1.6  486s
  4854  1850    3.50000  192    1    8.00000    3.00000  62.5%   1.6  504s
  5045  1968    4.00000  167    -    8.00000    3.00000  62.5%   1.6  505s
  5046  1902    4.00000  221    -    8.00000    3.00000  62.5%   1.6  525s
  5186  1975    6.00000  232    -    8.00000    3.00000  62.5%   1.6  546s
  5369  2035    6.00000  232    -    8.00000    3.00000  62.5%   1.6  573s
  5503  2071    6.00000  232    -    8.00000    3.00000  62.5%   1.6  599s
  5538  2096    4.00000  118    -    8.00000    3.00000  62.5%   1.6  600s
  5613  2121    6.00000  233    -    8.00000    3.00000  62.5%   1.6  627s
  5726  2156    6.00000  234    -    8.00000    3.00000  62.5%   1.6  657s
  5856  2201    6.00000  234    4    8.00000    3.00000  62.5%   1.6  687s
  5982  2261    6.00000  235    -    8.00000    3.00000  62.5%   1.6  723s
  6088  2297    6.00000  234    -    8.00000    3.00000  62.5%   1.6  752s
  6188  2329    4.00000   60    2    8.00000    3.00000  62.5%   1.6  781s
  6307  2364    4.00000  166    2    8.00000    3.00000  62.5%   1.6  811s
  6419  2415    4.00000   63    2    8.00000    3.00000  62.5%   1.6  845s
  6541  2455    4.00000   98    -    8.00000    3.00000  62.5%   1.6  881s
  6659  2511    4.00000  152    2    8.00000    3.00000  62.5%   1.6  913s
  6801  2590    4.50000  187    1    8.00000    3.00000  62.5%   1.6  942s
  6949  2640    5.00000  197    -    8.00000    3.00000  62.5%   1.6  975s
  7051  2714    7.00000  231    -    8.00000    3.00000  62.5%   1.6 1004s
  7163  2791    6.00000  196    -    8.00000    3.00000  62.5%   1.6 1005s
  7178  2750    7.00000  231    -    8.00000    3.00000  62.5%   1.6 1035s
  7303  2783    3.00000  158    -    8.00000    3.00000  62.5%   1.6 1063s
  7403  2802    4.00000  182    -    8.00000    3.00000  62.5%   1.6 1091s
  7466  2835    4.00000  182    -    8.00000    3.00000  62.5%   1.6 1122s
  7597  2907    5.00000  222    -    8.00000    3.00000  62.5%   1.6 1145s
  7721  2972    7.00000  232    -    8.00000    3.00000  62.5%   1.6 1170s
  7853  3020    7.00000  232    -    8.00000    3.00000  62.5%   1.6 1193s
  8034  3222    3.00000  170    2    8.00000    3.00000  62.5%   1.5 1606s
  8036  3223    4.00000  165 3736    8.00000    3.00000  62.5%   1.5 1744s
  8038  3226    6.00000  146    2    8.00000    3.00000  62.5%   5.5 1979s
  8040  3227    3.00000   57 3608    8.00000    3.00000  62.5%   5.5 2127s
  8041  3228    4.00000   36 2882    8.00000    3.00000  62.5%   5.5 2256s
  8042  3229    4.50000  202 2779    8.00000    3.00000  62.5%   5.5 2313s
  8043  3229    4.00000  157 2534    8.00000    3.00000  62.5%   5.5 2419s
  8044  3230    4.00000  155 2463    8.00000    3.00000  62.5%   5.5 2471s
  8045  3231    4.00000   60 2286    8.00000    3.00000  62.5%   5.5 3280s
  8046  3231    5.00000  205 2207    8.00000    3.00000  62.5%   5.5 3329s

Cutting planes:
  Gomory: 1
  Zero half: 16

Explored 8046 nodes (188716 simplex iterations) in 3605.45 seconds
Thread count was 4 (of 4 available processors)

Solution count 5: 8 9 11 ... 284

Time limit reached
Best objective 8.000000000000e+00, best bound 3.000000000000e+00, gap 62.5000%
Warning: Q constraint 0 doesn't have a name
